60
1 0 90
2 0 73
2 1 72
3 0 40
3 1 50
3 2 27
4 0 3
4 1 50
4 2 99
4 3 88
5 0 14
5 1 17
5 2 98
5 3 81
5 4 86
6 0 97
6 1 70
6 2 14
6 3 49
6 4 70
6 5 33
7 0 59
7 1 32
7 2 83
7 3 52
7 4 7
7 5 42
7 6 26
8 0 78
8 1 26
8 2 95
8 3 22
8 4 39
8 5 99
8 6 41
8 7 75
9 0 91
9 1 18
9 2 61
9 3 19
9 4 68
9 5 48
9 6 1
9 7 29
9 8 76
10 0 98
10 1 96
10 2 12
10 3 16
10 4 55
10 5 96
10 6 91
10 7 40
10 8 78
10 9 82
11 0 31
11 1 70
11 2 58
11 3 53
11 4 84
11 5 37
11 6 66
11 7 10
11 8 54
11 9 11
11 10 86
12 0 68
12 1 91
12 2 48
12 3 77
12 4 78
12 5 91
12 6 57
12 7 4
12 8 39
12 9 43
12 10 60
12 11 70
13 0 30
13 1 49
13 2 25
13 3 96
13 4 88
13 5 25
13 6 69
13 7 56
13 8 14
13 9 36
13 10 60
13 11 58
13 12 98
14 0 40
14 1 88
14 2 25
14 3 73
14 4 42
14 5 68
14 6 25
14 7 41
14 8 72
14 9 88
14 10 42
14 11 55
14 12 55
14 13 29
15 0 98
15 1 19
15 2 19
15 3 23
15 4 64
15 5 62
15 6 67
15 7 7
15 8 18
15 9 89
15 10 24
15 11 5
15 12 36
15 13 9
15 14 2
16 0 41
16 1 35
16 2 15
16 3 73
16 4 63
16 5 94
16 6 34
16 7 33
16 8 37
16 9 19
16 10 98
16 11 93
16 12 37
16 13 46
16 14 100
16 15 35
17 0 35
17 1 73
17 2 25
17 3 16
17 4 72
17 5 80
17 6 69
17 7 16
17 8 79
17 9 86
17 10 7
17 11 45
17 12 43
17 13 28
17 14 55
17 15 82
17 16 68
18 0 84
18 1 34
18 2 81
18 3 70
18 4 63
18 5 47
18 6 89
18 7 100
18 8 31
18 9 13
18 10 58
18 11 79
18 12 61
18 13 25
18 14 26
18 15 3
18 16 14
18 17 28
19 0 35
19 1 45
19 2 87
19 3 29
19 4 76
19 5 60
19 6 90
19 7 83
19 8 99
19 9 76
19 10 46
19 11 31
19 12 22
19 13 16
19 14 12
19 15 66
19 16 26
19 17 94
19 18 65
20 0 61
20 1 24
20 2 84
20 3 15
20 4 92
20 5 41
20 6 42
20 7 31
20 8 29
20 9 36
20 10 30
20 11 86
20 12 78
20 13 54
20 14 92
20 15 64
20 16 7
20 17 6
20 18 59
20 19 89
21 0 85
21 1 87
21 2 88
21 3 54
21 4 6
21 5 5
21 6 75
21 7 79
21 8 95
21 9 67
21 10 79
21 11 15
21 12 6
21 13 46
21 14 54
21 15 67
21 16 62
21 17 31
21 18 87
21 19 20
21 20 95
22 0 29
22 1 73
22 2 76
22 3 92
22 4 78
22 5 75
22 6 46
22 7 50
22 8 74
22 9 67
22 10 47
22 11 95
22 12 40
22 13 44
22 14 99
22 15 24
22 16 84
22 17 42
22 18 34
22 19 69
22 20 9
22 21 23
23 0 49
23 1 90
23 2 97
23 3 99
23 4 57
23 5 59
23 6 64
23 7 3
23 8 48
23 9 78
23 10 61
23 11 36
23 12 35
23 13 45
23 14 68
23 15 52
23 16 58
23 17 71
23 18 5
23 19 48
23 20 77
23 21 1
23 22 64
24 0 77
24 1 59
24 2 98
24 3 30
24 4 4
24 5 64
24 6 89
24 7 37
24 8 69
24 9 67
24 10 84
24 11 94
24 12 31
24 13 76
24 14 22
24 15 73
24 16 95
24 17 34
24 18 96
24 19 26
24 20 68
24 21 16
24 22 62
24 23 93
25 0 73
25 1 59
25 2 47
25 3 19
25 4 30
25 5 81
25 6 90
25 7 77
25 8 86
25 9 80
25 10 98
25 11 67
25 12 38
25 13 25
25 14 100
25 15 58
25 16 94
25 17 73
25 18 14
25 19 71
25 20 65
25 21 71
25 22 80
25 23 22
25 24 76
26 0 36
26 1 18
26 2 90
26 3 44
26 4 17
26 5 7
26 6 63
26 7 64
26 8 83
26 9 3
26 10 73
26 11 91
26 12 90
26 13 33
26 14 49
26 15 20
26 16 17
26 17 43
26 18 17
26 19 95
26 20 90
26 21 84
26 22 46
26 23 100
26 24 15
26 25 54
27 0 16
27 1 18
27 2 91
27 3 46
27 4 49
27 5 55
27 6 91
27 7 60
27 8 40
27 9 63
27 10 20
27 11 75
27 12 72
27 13 25
27 14 78
27 15 8
27 16 99
27 17 57
27 18 3
27 19 82
27 20 46
27 21 73
27 22 75
27 23 92
27 24 39
27 25 94
27 26 87
28 0 47
28 1 76
28 2 4
28 3 26
28 4 15
28 5 16
28 6 95
28 7 23
28 8 8
28 9 6
28 10 30
28 11 58
28 12 71
28 13 17
28 14 38
28 15 33
28 16 82
28 17 38
28 18 14
28 19 46
28 20 63
28 21 48
28 22 88
28 23 31
28 24 57
28 25 68
28 26 70
28 27 49
29 0 32
29 1 67
29 2 11
29 3 38
29 4 11
29 5 71
29 6 31
29 7 64
29 8 35
29 9 94
29 10 84
29 11 36
29 12 15
29 13 2
29 14 78
29 15 53
29 16 27
29 17 59
29 18 80
29 19 28
29 20 55
29 21 47
29 22 44
29 23 87
29 24 91
29 25 25
29 26 68
29 27 37
29 28 35
30 0 91
30 1 62
30 2 66
30 3 73
30 4 55
30 5 70
30 6 1
30 7 7
30 8 37
30 9 1
30 10 56
30 11 71
30 12 54
30 13 39
30 14 20
30 15 73
30 16 39
30 17 48
30 18 97
30 19 19
30 20 46
30 21 99
30 22 85
30 23 24
30 24 87
30 25 68
30 26 37
30 27 29
30 28 39
30 29 99
31 0 72
31 1 47
31 2 6
31 3 15
31 4 23
31 5 36
31 6 16
31 7 35
31 8 14
31 9 61
31 10 8
31 11 24
31 12 31
31 13 88
31 14 14
31 15 80
31 16 26
31 17 32
31 18 59
31 19 46
31 20 52
31 21 43
31 22 33
31 23 85
31 24 32
31 25 12
31 26 97
31 27 73
31 28 8
31 29 19
31 30 34
32 0 88
32 1 24
32 2 62
32 3 62
32 4 2
32 5 31
32 6 42
32 7 60
32 8 98
32 9 28
32 10 90
32 11 83
32 12 86
32 13 70
32 14 50
32 15 55
32 16 77
32 17 10
32 18 77
32 19 77
32 20 30
32 21 62
32 22 94
32 23 97
32 24 4
32 25 83
32 26 25
32 27 99
32 28 68
32 29 32
32 30 97
32 31 34
33 0 42
33 1 50
33 2 80
33 3 4
33 4 88
33 5 54
33 6 7
33 7 40
33 8 71
33 9 55
33 10 88
33 11 71
33 12 44
33 13 39
33 14 14
33 15 57
33 16 43
33 17 69
33 18 22
33 19 29
33 20 100
33 21 94
33 22 56
33 23 74
33 24 89
33 25 80
33 26 42
33 27 45
33 28 78
33 29 98
33 30 84
33 31 87
33 32 52
34 0 23
34 1 23
34 2 16
34 3 30
34 4 48
34 5 28
34 6 86
34 7 79
34 8 5
34 9 18
34 10 27
34 11 12
34 12 36
34 13 16
34 14 41
34 15 24
34 16 85
34 17 97
34 18 7
34 19 88
34 20 81
34 21 89
34 22 2
34 23 27
34 24 37
34 25 10
34 26 55
34 27 31
34 28 93
34 29 79
34 30 97
34 31 92
34 32 68
34 33 26
35 0 60
35 1 58
35 2 5
35 3 77
35 4 53
35 5 45
35 6 27
35 7 5
35 8 94
35 9 56
35 10 25
35 11 61
35 12 10
35 13 91
35 14 62
35 15 39
35 16 3
35 17 49
35 18 57
35 19 23
35 20 60
35 21 52
35 22 73
35 23 28
35 24 57
35 25 54
35 26 45
35 27 46
35 28 72
35 29 3
35 30 6
35 31 28
35 32 17
35 33 73
35 34 91
36 0 90
36 1 53
36 2 86
36 3 49
36 4 23
36 5 48
36 6 82
36 7 82
36 8 21
36 9 86
36 10 29
36 11 73
36 12 84
36 13 47
36 14 50
36 15 4
36 16 47
36 17 7
36 18 35
36 19 61
36 20 44
36 21 31
36 22 55
36 23 64
36 24 7
36 25 63
36 26 85
36 27 94
36 28 59
36 29 29
36 30 34
36 31 87
36 32 58
36 33 5
36 34 1
36 35 23
37 0 88
37 1 31
37 2 29
37 3 33
37 4 17
37 5 56
37 6 27
37 7 94
37 8 56
37 9 51
37 10 65
37 11 90
37 12 2
37 13 27
37 14 77
37 15 64
37 16 40
37 17 45
37 18 23
37 19 78
37 20 32
37 21 3
37 22 91
37 23 63
37 24 36
37 25 36
37 26 49
37 27 30
37 28 18
37 29 68
37 30 62
37 31 57
37 32 49
37 33 97
37 34 55
37 35 95
37 36 14
38 0 10
38 1 72
38 2 47
38 3 61
38 4 47
38 5 59
38 6 7
38 7 69
38 8 68
38 9 94
38 10 75
38 11 27
38 12 99
38 13 11
38 14 77
38 15 30
38 16 48
38 17 13
38 18 64
38 19 50
38 20 22
38 21 65
38 22 56
38 23 42
38 24 86
38 25 6
38 26 65
38 27 76
38 28 53
38 29 33
38 30 18
38 31 12
38 32 82
38 33 35
38 34 44
38 35 73
38 36 28
38 37 85
39 0 16
39 1 61
39 2 80
39 3 14
39 4 60
39 5 33
39 6 64
39 7 34
39 8 55
39 9 38
39 10 19
39 11 77
39 12 1
39 13 56
39 14 50
39 15 62
39 16 35
39 17 31
39 18 27
39 19 23
39 20 2
39 21 52
39 22 94
39 23 39
39 24 23
39 25 35
39 26 89
39 27 68
39 28 21
39 29 27
39 30 90
39 31 71
39 32 85
39 33 11
39 34 58
39 35 63
39 36 99
39 37 96
39 38 24
40 0 51
40 1 47
40 2 13
40 3 41
40 4 28
40 5 79
40 6 68
40 7 7
40 8 40
40 9 18
40 10 2
40 11 23
40 12 48
40 13 6
40 14 66
40 15 52
40 16 41
40 17 45
40 18 21
40 19 73
40 20 86
40 21 83
40 22 11
40 23 70
40 24 10
40 25 31
40 26 68
40 27 82
40 28 58
40 29 24
40 30 50
40 31 14
40 32 63
40 33 72
40 34 25
40 35 84
40 36 27
40 37 40
40 38 45
40 39 42
41 0 10
41 1 72
41 2 80
41 3 14
41 4 52
41 5 37
41 6 99
41 7 28
41 8 94
41 9 73
41 10 16
41 11 44
41 12 65
41 13 47
41 14 54
41 15 89
41 16 56
41 17 58
41 18 83
41 19 59
41 20 98
41 21 61
41 22 22
41 23 64
41 24 100
41 25 73
41 26 41
41 27 5
41 28 38
41 29 7
41 30 83
41 31 9
41 32 86
41 33 24
41 34 90
41 35 82
41 36 34
41 37 23
41 38 18
41 39 39
41 40 26
42 0 89
42 1 60
42 2 16
42 3 30
42 4 75
42 5 19
42 6 92
42 7 8
42 8 100
42 9 1
42 10 61
42 11 52
42 12 70
42 13 19
42 14 38
42 15 13
42 16 59
42 17 23
42 18 87
42 19 18
42 20 20
42 21 7
42 22 4
42 23 77
42 24 3
42 25 45
42 26 100
42 27 7
42 28 94
42 29 67
42 30 56
42 31 34
42 32 11
42 33 82
42 34 51
42 35 44
42 36 21
42 37 89
42 38 89
42 39 2
42 40 64
42 41 51
43 0 69
43 1 51
43 2 88
43 3 16
43 4 73
43 5 63
43 6 42
43 7 15
43 8 80
43 9 11
43 10 81
43 11 62
43 12 9
43 13 72
43 14 76
43 15 39
43 16 66
43 17 93
43 18 26
43 19 55
43 20 45
43 21 66
43 22 33
43 23 88
43 24 99
43 25 3
43 26 71
43 27 66
43 28 95
43 29 7
43 30 65
43 31 39
43 32 9
43 33 81
43 34 67
43 35 54
43 36 24
43 37 14
43 38 81
43 39 32
43 40 43
43 41 34
43 42 94
44 0 99
44 1 33
44 2 38
44 3 91
44 4 36
44 5 46
44 6 13
44 7 83
44 8 47
44 9 6
44 10 23
44 11 64
44 12 52
44 13 35
44 14 20
44 15 80
44 16 52
44 17 69
44 18 9
44 19 69
44 20 36
44 21 98
44 22 70
44 23 14
44 24 24
44 25 99
44 26 21
44 27 23
44 28 55
44 29 82
44 30 73
44 31 2
44 32 71
44 33 47
44 34 4
44 35 19
44 36 61
44 37 16
44 38 76
44 39 52
44 40 58
44 41 18
44 42 39
44 43 72
45 0 7
45 1 7
45 2 24
45 3 17
45 4 47
45 5 59
45 6 4
45 7 36
45 8 69
45 9 79
45 10 80
45 11 36
45 12 59
45 13 5
45 14 24
45 15 39
45 16 17
45 17 94
45 18 68
45 19 32
45 20 22
45 21 32
45 22 58
45 23 93
45 24 93
45 25 100
45 26 69
45 27 91
45 28 40
45 29 74
45 30 79
45 31 20
45 32 37
45 33 70
45 34 41
45 35 1
45 36 35
45 37 37
45 38 91
45 39 58
45 40 14
45 41 68
45 42 98
45 43 76
45 44 27
46 0 83
46 1 33
46 2 71
46 3 97
46 4 3
46 5 9
46 6 34
46 7 77
46 8 17
46 9 30
46 10 48
46 11 51
46 12 12
46 13 52
46 14 65
46 15 74
46 16 27
46 17 25
46 18 11
46 19 62
46 20 29
46 21 94
46 22 47
46 23 80
46 24 46
46 25 58
46 26 99
46 27 82
46 28 89
46 29 27
46 30 55
46 31 19
46 32 56
46 33 25
46 34 67
46 35 10
46 36 5
46 37 21
46 38 21
46 39 31
46 40 14
46 41 90
46 42 64
46 43 88
46 44 97
46 45 43
47 0 88
47 1 59
47 2 26
47 3 71
47 4 25
47 5 39
47 6 82
47 7 87
47 8 2
47 9 9
47 10 34
47 11 77
47 12 38
47 13 16
47 14 16
47 15 75
47 16 13
47 17 43
47 18 62
47 19 33
47 20 25
47 21 97
47 22 8
47 23 61
47 24 10
47 25 44
47 26 70
47 27 35
47 28 4
47 29 80
47 30 70
47 31 13
47 32 61
47 33 6
47 34 60
47 35 8
47 36 63
47 37 40
47 38 55
47 39 100
47 40 88
47 41 9
47 42 100
47 43 93
47 44 9
47 45 75
47 46 17
48 0 46
48 1 51
48 2 11
48 3 100
48 4 31
48 5 34
48 6 14
48 7 69
48 8 2
48 9 64
48 10 27
48 11 96
48 12 78
48 13 58
48 14 20
48 15 60
48 16 73
48 17 18
48 18 27
48 19 97
48 20 19
48 21 86
48 22 54
48 23 47
48 24 74
48 25 43
48 26 14
48 27 32
48 28 13
48 29 40
48 30 30
48 31 90
48 32 34
48 33 69
48 34 29
48 35 66
48 36 33
48 37 11
48 38 26
48 39 39
48 40 29
48 41 28
48 42 36
48 43 16
48 44 45
48 45 77
48 46 4
48 47 47
49 0 70
49 1 61
49 2 23
49 3 24
49 4 70
49 5 53
49 6 71
49 7 71
49 8 9
49 9 59
49 10 98
49 11 48
49 12 99
49 13 96
49 14 49
49 15 7
49 16 9
49 17 8
49 18 94
49 19 100
49 20 79
49 21 45
49 22 96
49 23 2
49 24 28
49 25 78
49 26 60
49 27 2
49 28 56
49 29 24
49 30 22
49 31 3
49 32 71
49 33 6
49 34 80
49 35 90
49 36 98
49 37 68
49 38 73
49 39 92
49 40 48
49 41 25
49 42 66
49 43 36
49 44 56
49 45 17
49 46 96
49 47 53
49 48 8
50 0 91
50 1 76
50 2 20
50 3 24
50 4 37
50 5 74
50 6 14
50 7 74
50 8 52
50 9 14
50 10 19
50 11 25
50 12 4
50 13 54
50 14 34
50 15 57
50 16 17
50 17 54
50 18 45
50 19 1
50 20 14
50 21 27
50 22 69
50 23 73
50 24 67
50 25 40
50 26 96
50 27 28
50 28 61
50 29 12
50 30 66
50 31 30
50 32 62
50 33 15
50 34 67
50 35 34
50 36 39
50 37 92
50 38 46
50 39 26
50 40 98
50 41 29
50 42 63
50 43 46
50 44 11
50 45 55
50 46 23
50 47 16
50 48 55
50 49 65
51 0 80
51 1 32
51 2 98
51 3 75
51 4 95
51 5 92
51 6 89
51 7 55
51 8 81
51 9 80
51 10 44
51 11 12
51 12 79
51 13 22
51 14 30
51 15 11
51 16 42
51 17 71
51 18 98
51 19 50
51 20 25
51 21 12
51 22 12
51 23 41
51 24 2
51 25 81
51 26 67
51 27 46
51 28 65
51 29 28
51 30 9
51 31 88
51 32 69
51 33 87
51 34 89
51 35 23
51 36 38
51 37 29
51 38 13
51 39 47
51 40 34
51 41 98
51 42 78
51 43 74
51 44 61
51 45 72
51 46 4
51 47 9
51 48 52
51 49 88
51 50 92
52 0 8
52 1 71
52 2 28
52 3 76
52 4 83
52 5 18
52 6 59
52 7 63
52 8 9
52 9 10
52 10 60
52 11 47
52 12 40
52 13 9
52 14 98
52 15 61
52 16 35
52 17 82
52 18 18
52 19 19
52 20 44
52 21 35
52 22 73
52 23 18
52 24 29
52 25 56
52 26 99
52 27 41
52 28 98
52 29 46
52 30 18
52 31 73
52 32 79
52 33 42
52 34 20
52 35 5
52 36 76
52 37 44
52 38 57
52 39 99
52 40 73
52 41 6
52 42 56
52 43 46
52 44 76
52 45 60
52 46 20
52 47 33
52 48 18
52 49 67
52 50 93
52 51 87
53 0 58
53 1 34
53 2 93
53 3 94
53 4 53
53 5 24
53 6 43
53 7 78
53 8 95
53 9 55
53 10 62
53 11 11
53 12 15
53 13 70
53 14 79
53 15 79
53 16 19
53 17 10
53 18 98
53 19 23
53 20 6
53 21 38
53 22 26
53 23 42
53 24 75
53 25 88
53 26 26
53 27 5
53 28 19
53 29 32
53 30 75
53 31 39
53 32 72
53 33 98
53 34 36
53 35 59
53 36 56
53 37 84
53 38 57
53 39 82
53 40 39
53 41 38
53 42 85
53 43 27
53 44 3
53 45 7
53 46 31
53 47 92
53 48 79
53 49 79
53 50 37
53 51 77
53 52 9
54 0 67
54 1 38
54 2 64
54 3 33
54 4 3
54 5 93
54 6 8
54 7 12
54 8 49
54 9 68
54 10 73
54 11 35
54 12 48
54 13 58
54 14 26
54 15 72
54 16 51
54 17 97
54 18 81
54 19 80
54 20 17
54 21 1
54 22 40
54 23 52
54 24 62
54 25 28
54 26 89
54 27 82
54 28 91
54 29 54
54 30 30
54 31 99
54 32 72
54 33 7
54 34 79
54 35 52
54 36 100
54 37 97
54 38 35
54 39 88
54 40 73
54 41 44
54 42 13
54 43 49
54 44 1
54 45 86
54 46 9
54 47 54
54 48 79
54 49 11
54 50 14
54 51 70
54 52 21
54 53 70
55 0 7
55 1 83
55 2 41
55 3 38
55 4 3
55 5 7
55 6 1
55 7 45
55 8 27
55 9 8
55 10 92
55 11 88
55 12 30
55 13 32
55 14 100
55 15 1
55 16 88
55 17 48
55 18 75
55 19 39
55 20 43
55 21 63
55 22 10
55 23 6
55 24 66
55 25 58
55 26 99
55 27 33
55 28 64
55 29 56
55 30 24
55 31 80
55 32 59
55 33 25
55 34 90
55 35 35
55 36 5
55 37 70
55 38 20
55 39 8
55 40 22
55 41 69
55 42 64
55 43 66
55 44 76
55 45 62
55 46 93
55 47 45
55 48 16
55 49 93
55 50 85
55 51 39
55 52 48
55 53 61
55 54 6
56 0 55
56 1 34
56 2 41
56 3 65
56 4 69
56 5 3
56 6 66
56 7 90
56 8 47
56 9 48
56 10 99
56 11 37
56 12 91
56 13 33
56 14 18
56 15 58
56 16 42
56 17 24
56 18 6
56 19 64
56 20 44
56 21 37
56 22 9
56 23 75
56 24 40
56 25 56
56 26 13
56 27 35
56 28 75
56 29 61
56 30 54
56 31 37
56 32 12
56 33 76
56 34 44
56 35 89
56 36 95
56 37 31
56 38 3
56 39 7
56 40 98
56 41 82
56 42 11
56 43 27
56 44 66
56 45 43
56 46 24
56 47 61
56 48 31
56 49 33
56 50 28
56 51 52
56 52 39
56 53 29
56 54 10
56 55 89
57 0 55
57 1 73
57 2 79
57 3 97
57 4 8
57 5 93
57 6 68
57 7 9
57 8 89
57 9 19
57 10 89
57 11 84
57 12 39
57 13 18
57 14 36
57 15 35
57 16 68
57 17 68
57 18 45
57 19 67
57 20 100
57 21 42
57 22 69
57 23 55
57 24 34
57 25 86
57 26 16
57 27 5
57 28 64
57 29 9
57 30 61
57 31 68
57 32 10
57 33 4
57 34 34
57 35 23
57 36 26
57 37 82
57 38 40
57 39 27
57 40 18
57 41 93
57 42 67
57 43 5
57 44 76
57 45 42
57 46 87
57 47 41
57 48 84
57 49 56
57 50 51
57 51 66
57 52 99
57 53 34
57 54 38
57 55 86
57 56 81
58 0 95
58 1 18
58 2 64
58 3 30
58 4 13
58 5 11
58 6 75
58 7 65
58 8 93
58 9 83
58 10 89
58 11 30
58 12 34
58 13 2
58 14 36
58 15 48
58 16 74
58 17 28
58 18 88
58 19 20
58 20 32
58 21 26
58 22 41
58 23 62
58 24 71
58 25 36
58 26 76
58 27 31
58 28 57
58 29 13
58 30 56
58 31 60
58 32 84
58 33 34
58 34 73
58 35 27
58 36 98
58 37 47
58 38 42
58 39 11
58 40 37
58 41 83
58 42 32
58 43 28
58 44 55
58 45 79
58 46 60
58 47 28
58 48 24
58 49 71
58 50 94
58 51 11
58 52 7
58 53 59
58 54 43
58 55 92
58 56 65
58 57 55
59 0 30
59 1 15
59 2 25
59 3 55
59 4 72
59 5 9
59 6 36
59 7 12
59 8 17
59 9 17
59 10 81
59 11 92
59 12 11
59 13 64
59 14 21
59 15 36
59 16 92
59 17 22
59 18 2
59 19 72
59 20 44
59 21 7
59 22 30
59 23 39
59 24 43
59 25 10
59 26 20
59 27 20
59 28 85
59 29 34
59 30 46
59 31 2
59 32 86
59 33 10
59 34 71
59 35 4
59 36 80
59 37 4
59 38 31
59 39 35
59 40 66
59 41 30
59 42 83
59 43 87
59 44 75
59 45 48
59 46 65
59 47 75
59 48 54
59 49 100
59 50 16
59 51 53
59 52 96
59 53 13
59 54 49
59 55 3
59 56 64
59 57 84
59 58 93
